906422.0
1508
0 1 2 3 4 5 8 9 10 12 14 16 18 19 20 21 22 23 24 25 27 28 29 32 34 36 37 38 40 42 44 46 47 48 49 50 51 52 53 54 55 56 57 59 60 61 62 63 64 65 66 67 69 70 71 72 73 74 76 78 79 80 81 82 84 85 86 87 88 89 90 91 94 95 96 97 